/* Objective function */
max: ;

/* Constraints */
R1: +x10 <= 0;
0 x1 <= 1;
R3: +x2 <= 0;
R4: +x3 <= 0;
R5: +x3 <= 0;
R6: +x4 <= 0;
R7: +x5 <= 0;
0 x1 <= 0;
0 x1 <= 0;
R10: +x5 <= 0;
R11: +x2 <= 0;
R12: +x4 <= 0;
R13: +x6 <= 0;
R14: +x7 <= 0;
R15: +x6 <= 0;
R16: +x7 <= 0;
R17: +x1 <= 0;
R18: +x8 <= 0;
R19: +x1 <= 0;
R20: +x1 <= 0;
R21: +x8 <= 0;
R22: +x9 <= 0;
R23: +x9 <= 0;
R24: +x10 >= 0;
0 x1 >= 1;
R26: +x8 >= 0;
R27: +x8 >= 0;
R28: +x3 >= 0;
R29: +x9 >= 0;
R30: +x7 >= 0;
R31: +x7 >= 0;
R32: +x9 >= 0;
R33: +x3 >= 0;
R34: +x3 >= 0;
R35: +x5 >= 0;
R36: +x6 >= 0;
R37: +x6 >= 0;
R38: +x5 >= 0;
R39: +x2 >= 0;
R40: +x1 >= 0;
R41: +x1 >= 0;
R42: +x1 >= 0;
R43: +x2 >= 0;
R44: +x4 >= 0;
R45: +x4 >= 0;
R46: +x1 >= 0;
R47: +x2 >= 0;
R48: +x3 >= 0;
R49: +x4 >= 0;
R50: +x5 >= 0;
R51: +x6 >= 0;
R52: +x7 >= 0;
R53: +x8 >= 0;
R54: +x9 >= 0;
R55: +x10 >= 0;
